c Output_time 26.03.2020 18:15:09_+0100 1585242909621611713
c ** Program information **
c program_name                          "QBRG_debug"
c version                               "0.3.20"
c date                                  "25.3.2020"
c gid_id                                "673970833836058123f633335630c185360d632e"
c author                                "Oliver Kullmann"
c url                                   "https://github.com/OKullmann/oklibrary/blob/master/Satisfiability/Transformers/Generators/Random/QBRG.cpp"
c ** Machine information **
c machine_name                          "chyna-Lenovo-G50-70"
c bogomips                              3791.08
c ** Compilation information **
c compiler_version                      "g++ 7.5.0"
c compilation_date                      "Mar_26_2020 11:16:30"
c compilation_options                   "--std=c++17 -pedantic -fmax-errors=5 -Wall -Wextra -g -D_GLIBCXX_DEBUG"
c NDEBUG                                0
c OPTIMIZE                              0
c ** Parameters **
c command-line                          "./QBRG_debug" "a40 e40 a40 40" "115*1,1|2-2,1|3-3,1|4-4,1" "" "1,t" ""
c output                                "QuBlRaGe_160_115_1585242909621448487.qdimacs"
c options                               "filtered,renamed"
c num_quantifier_blocks                 4
c  quantifier_blocks                    1:a1-40 2:e41-80 3:a81-120 4:e121-160
c num_clause-blocks                     1
c  clause-blocks                        115 * {1-40,1,1/2} | {41-80,1,1/2} | {81-120,1,1/2} | {121-160,1,1/2}
c num_e-seeds                           37+2=39
c  e-seeds                              1 0 1 0 5 160 2 40 0 40 1 40 0 40 1 115 4 1 1 1 1 2 2 2 1 1 2 3 3 1 1 2 4 4 1 1 2 1 1585242909621448000
p cnf 146 115
a 1 2 3 4 5 6 7 8 9 10 11 12 13 14 15 16 17 18 19 20 21 22 23 24 25 26 27 28 29 30 31 32 33 34 35 36 37 0
e 38 39 40 41 42 43 44 45 46 47 48 49 50 51 52 53 54 55 56 57 58 59 60 61 62 63 64 65 66 67 68 69 70 71 72 0
a 73 74 75 76 77 78 79 80 81 82 83 84 85 86 87 88 89 90 91 92 93 94 95 96 97 98 99 100 101 102 103 104 105 106 107 108 109 0
e 110 111 112 113 114 115 116 117 118 119 120 121 122 123 124 125 126 127 128 129 130 131 132 133 134 135 136 137 138 139 140 141 142 143 144 145 146 0
18 -50 81 -110 0
-25 62 -106 -110 0
-29 38 102 110 0
31 -51 104 110 0
-2 52 -79 -111 0
-6 44 -104 -112 0
-16 -50 93 112 0
36 66 -75 113 0
37 -59 96 -114 0
-30 71 -100 -114 0
19 54 -95 114 0
10 -56 104 114 0
-21 -43 -73 -115 0
26 55 -84 -115 0
22 -56 -84 -115 0
34 -46 -87 -115 0
10 -59 83 115 0
-32 58 -91 115 0
-1 57 -94 -116 0
9 48 -88 116 0
30 -41 -104 116 0
34 -60 -100 -117 0
22 64 98 117 0
24 -42 -78 -118 0
21 65 74 118 0
11 -46 90 118 0
21 63 87 -119 0
-6 -44 -95 -119 0
-4 -52 100 -120 0
-22 46 -103 -120 0
26 -53 -106 -120 0
37 -41 -76 120 0
-30 -52 95 120 0
-23 -56 74 -121 0
-31 -46 -85 -121 0
5 53 -95 -121 0
3 -40 98 -121 0
7 52 99 -121 0
15 -60 -94 122 0
14 -47 101 122 0
-20 -39 -104 122 0
11 51 75 -123 0
13 50 -95 -123 0
35 58 -92 123 0
13 53 -96 123 0
-30 -53 -80 124 0
20 -47 -91 -125 0
-16 60 -90 125 0
35 -50 -107 125 0
-7 49 -109 125 0
-15 -47 85 -126 0
16 47 95 -126 0
-11 -66 100 -126 0
-6 71 95 -127 0
-14 -61 87 127 0
31 67 93 127 0
-30 -49 -109 127 0
7 61 -77 -128 0
-23 -58 90 128 0
30 -54 99 128 0
4 -69 74 -129 0
35 -65 -107 129 0
2 66 90 -130 0
-19 -50 -104 130 0
-29 48 106 130 0
4 -58 -86 -131 0
11 -48 88 131 0
-27 -51 101 131 0
33 -49 -74 -132 0
29 39 -109 -132 0
-2 -49 73 132 0
7 46 -75 132 0
-5 53 75 132 0
-8 58 100 -133 0
-8 38 86 133 0
-29 67 96 133 0
-31 -50 -73 -134 0
-2 -55 -82 134 0
15 -64 -84 134 0
18 -71 -95 134 0
32 -63 97 134 0
10 41 74 -135 0
-6 45 -79 135 0
32 49 103 135 0
-17 65 -84 -136 0
-15 -39 94 -137 0
9 47 -91 137 0
29 -54 105 -138 0
-5 71 -106 -138 0
18 -38 -73 138 0
30 60 -82 138 0
15 62 97 138 0
8 63 -78 -139 0
-18 -58 91 139 0
20 71 -96 139 0
24 38 107 -140 0
33 40 -89 140 0
19 60 -102 141 0
-26 68 -81 -142 0
-25 57 92 -142 0
-21 -50 -102 -142 0
28 -49 -106 -142 0
5 70 108 142 0
2 -72 -82 -143 0
-24 -51 -104 -143 0
17 68 -90 -144 0
30 41 95 -144 0
-14 70 87 144 0
12 -39 -78 -145 0
9 57 -83 -145 0
29 -61 85 -145 0
15 67 -92 -145 0
-36 68 -98 -145 0
24 66 -104 -145 0
-27 -72 96 146 0
